100 265
10 18 3
7 25 1
8 25 1
6 33 2
10 33 2
6 27 2
9 32 3
8 23 4
8 9 4
6 23 16
18 28 2
14 18 2
18 21 2
18 31 6
5 17 2
8 14 2
7 19 2
6 13 2
5 14 2
5 11 2
10 14 2
7 31 2
6 26 2
8 26 2
5 26 2
8 19 6
8 18 2
6 18 18
4 10 2
13 14 1
13 18 3
6 32 2
6 15 2
10 26 4
15 33 4
15 15 2
13 24 1
11 16 1
11 33 1
11 20 1
15 19 4
14 15 4
9 10 1
11 15 2
11 17 2
5 23 4
15 28 1
13 15 1
18 26 2
18 34 2
14 14 2
10 15 3
16 17 2
15 32 4
13 23 2
13 32 4
13 13 2
11 32 12
10 32 4
7 13 2
13 26 1
5 18 1
4 7 3
7 22 1
7 11 1
8 27 1
10 22 1
20 20 4
10 16 4
7 32 2
4 32 2
3 7 1
11 18 2
7 30 8
9 31 2
6 30 2
6 28 2
6 16 2
13 33 1
9 20 1
20 23 2
8 32 4
7 15 1
9 11 1
3 18 1
10 35 4
10 11 4
11 12 1
4 24 4
4 19 2
14 29 1
7 18 3
6 24 2
9 28 2
8 17 2
8 8 1
5 22 2
12 27 1
10 20 1
13 16 2
50 100 
50 100 
50 100 
50 100 
50 100 
50 100 
50 100 
50 100 
50 100 
50 100 
50 100 
50 100 
50 100 
50 100 
50 100 
50 100 
50 100 
50 100 
50 100 
50 100 
50 100 
50 100 
50 100 
50 100 
50 100 
50 100 
50 100 
50 100 
50 100 
50 100 
50 100 
50 100 
50 100 
50 100 
50 100 
50 100 
50 100 
50 100 
50 100 
50 100 
50 100 
50 100 
50 100 
50 100 
50 100 
50 100 
50 100 
50 100 
50 100 
50 100 
50 100 
50 100 
50 100 
50 100 
50 100 
50 100 
50 100 
50 100 
50 100 
50 100 
50 100 
50 100 
50 100 
50 100 
50 100 
50 100 
50 100 
50 100 
50 100 
50 100 
50 100 
50 100 
50 100 
50 100 
50 100 
50 100 
50 100 
50 100 
50 100 
50 100 
50 100 
50 100 
50 100 
50 100 
50 100 
50 100 
50 100 
50 100 
50 100 
50 100 
50 100 
50 100 
50 100 
50 100 
50 100 
50 100 
50 100 
50 100 
50 100 
50 100 
50 100 
50 100 
50 100 
50 100 
50 100 
50 100 
50 100 
50 100 
50 100 
50 100 
50 100 
50 100 
50 100 
50 100 
50 100 
50 100 
50 100 
50 100 
50 100 
50 100 
50 100 
50 100 
50 100 
50 100 
50 100 
50 100 
50 100 
50 100 
50 100 
50 100 
50 100 
50 100 
50 100 
50 100 
50 100 
50 100 
50 100 
50 100 
50 100 
50 100 
50 100 
50 100 
50 100 
50 100 
50 100 
50 100 
50 100 
50 100 
50 100 
50 100 
50 100 
50 100 
50 100 
50 100 
50 100 
50 100 
50 100 
50 100 
50 100 
50 100 
50 100 
50 100 
50 100 
50 100 
50 100 
50 100 
50 100 
50 100 
50 100 
50 100 
50 100 
50 100 
50 100 
50 100 
50 100 
50 100 
50 100 
50 100 
50 100 
50 100 
50 100 
50 100 
50 100 
50 100 
50 100 
50 100 
50 100 
50 100 
50 100 
50 100 
50 100 
50 100 
50 100 
50 100 
50 100 
50 100 
50 100 
50 100 
50 100 
50 100 
50 100 
50 100 
50 100 
50 100 
50 100 
50 100 
50 100 
50 100 
50 100 
50 100 
50 100 
50 100 
50 100 
50 100 
50 100 
50 100 
50 100 
50 100 
50 100 
50 100 
50 100 
50 100 
50 100 
50 100 
50 100 
50 100 
50 100 
50 100 
50 100 
50 100 
50 100 
50 100 
50 100 
50 100 
50 100 
50 100 
50 100 
50 100 
50 100 
50 100 
50 100 
50 100 
50 100 
50 100 
50 100 
50 100 
50 100 
50 100 
50 100 
50 100 
50 100 
50 100 
50 100 
50 100 
50 100 
50 100 
50 100 
50 100 
50 100 
50 100 
50 100 
50 100 
50 100 
50 100 
50 100 
